\ENCODING=ISO-8859-1
\Problem name: IloCplex

Minimize
 obj1: 3 x_a_0 + 3 x_a_1 + x_a_2 + 2 x_a_3 + 2 x_a_4 + 2 x_a_5 + x_a_6
       + 2 x_a_7 + x_a_8 + x_a_9 + 2 x_a_10 + x_a_11 + 2 x_a_12 + x_a_13
       + 3 x_a_14 + x_a_15 + 3 x_a_16 + x_a_17 + 3 x_a_18 + x_a_19 + 2 x_a_20
       + x_a_21 + 3 x_a_22 + x_a_23 + 2 x_a_24 + 3 x_a_25 + 3 x_a_26 + 3 x_a_27
       + 3 x_a_28 + 3 x_a_29 + x_a_30 + 2 x_a_31 + x_a_32 + 2 x_a_33 + 3 x_a_34
       + 2 x_a_35 + 3 x_a_36 + 2 x_a_37 + 2 x_a_38 + x_a_39 + 2 x_a_40
       + 2 x_a_41 + x_a_42 + x_a_43 + 3 x_a_44 + x_a_45 + x_a_46 + 3 x_a_47
       + 2 x_a_48 + 3 x_a_49 + 3 x_a_50 + 3 x_a_51 + 3 x_a_52 + 2 x_a_53
       + 2 x_a_54 + 2 x_a_55 + 2 x_a_56 + x_a_57 + x_a_58 + x_a_59 + 2 x_a_60
       + x_a_61 + 3 x_a_62 + 2 x_a_63 + 3 x_a_64 + 3 x_a_65 + 2 x_a_66
       + 3 x_a_67 + 2 x_a_68 + x_a_69 + 2 x_a_70 + x_a_71 + x_a_72 + 3 x_a_73
       + x_a_74 + 2 x_a_75 + 3 x_a_76 + 2 x_a_77 + 3 x_a_78 + x_a_79 + 2 x_a_80
       + 2 x_a_81 + 2 x_a_82 + x_a_83 + 3 x_a_84 + x_a_85 + 2 x_a_86 + 2 x_a_87
       + 3 x_a_88 + x_a_89 + 2 x_a_90 + 3 x_a_91 + 2 x_a_92 + 2 x_a_93
       + 2 x_a_94 + 2 x_a_95 + 1000000000 x_a_96 + 1000000000 x_a_97
       + 1000000000 x_a_98 + 1000000000 x_a_99 + 1000000000 x_a_100
       + 1000000000 x_a_101 + 1000000000 x_a_102 + 1000000000 x_a_103
       + 10000 x_a_104
Subject To
 c1:   y_a_96 + y_a_97 + y_a_98 + y_a_99 <= 59.6
 c2:   y_a_0 + y_a_1 + y_a_2 + y_a_3 + y_a_4 + y_a_5 + y_a_6 + y_a_7 + y_a_100
       + y_a_102  = 0
 c3:   - y_a_0 + y_a_8 + y_a_9 + y_a_10 + y_a_11 + y_a_12 + y_a_13 + y_a_14
       + y_a_15 + y_a_16 + y_a_17 + y_a_18  = 0
 c4:   - y_a_1 - y_a_8 + y_a_19 + y_a_20 + y_a_21 + y_a_22 + y_a_23 + y_a_24
       + y_a_25  = 0
 c5:   - y_a_2 - y_a_9 - y_a_19 + y_a_26 + y_a_27 + y_a_28 + y_a_29 + y_a_30
       + y_a_31 + y_a_32 + y_a_33 + y_a_34  = 0
 c6:   - y_a_10 + y_a_35 + y_a_36 + y_a_37 + y_a_38 + y_a_39 + y_a_40 + y_a_41
       + y_a_42  = 0
 c7:   - y_a_97 - y_a_3 - y_a_11 + y_a_43 + y_a_44 + y_a_45 + y_a_46 + y_a_47
       + y_a_48 + y_a_49 + y_a_50  = 0
 c8:   - y_a_99 - y_a_20 - y_a_26 - y_a_35 + y_a_51 + y_a_52 + y_a_53 + y_a_54
       + y_a_55 + y_a_56 + y_a_57  = 0
 c9:   - y_a_12 - y_a_21 - y_a_36 - y_a_51 + y_a_58 + y_a_59 + y_a_60 + y_a_61
       + y_a_62 + y_a_63 + y_a_64 + y_a_65  = 0
 c10:  - y_a_13 - y_a_37 - y_a_43 - y_a_52 - y_a_58 + y_a_66 + y_a_67 + y_a_68
       + y_a_69 + y_a_70 + y_a_71  = 0
 c11:  - y_a_38 - y_a_44 - y_a_59 - y_a_66 + y_a_72 + y_a_73 + y_a_74 + y_a_75
       + y_a_76 + y_a_77 + y_a_78  = 0
 c12:  - y_a_27 - y_a_39 - y_a_45 - y_a_53 - y_a_60 - y_a_67 - y_a_72 + y_a_79
       + y_a_80 + y_a_81  = 0
 c13:  - y_a_96 - y_a_98 - y_a_4 - y_a_14 - y_a_22 - y_a_28 - y_a_54 - y_a_68
       - y_a_73 - y_a_79 + y_a_82 + y_a_83 + y_a_84 + y_a_85  = 0
 c14:  - y_a_15 - y_a_23 - y_a_29 - y_a_40 - y_a_46 - y_a_61 - y_a_69 - y_a_74
       - y_a_82 + y_a_86 + y_a_87 + y_a_88 + y_a_89  = 0
 c15:  - y_a_16 - y_a_24 - y_a_30 - y_a_55 - y_a_70 - y_a_80 - y_a_83 - y_a_86
       + y_a_90 + y_a_91 + y_a_101  = 0
 c16:  - y_a_5 - y_a_31 - y_a_41 - y_a_47 - y_a_56 - y_a_62 - y_a_75 - y_a_81
       - y_a_84 - y_a_87 - y_a_90 + y_a_92 + y_a_93 + y_a_103  = 0
 c17:  - y_a_6 - y_a_32 - y_a_48 - y_a_63 - y_a_76 - y_a_88 - y_a_92 + y_a_94
        = 0
 c18:  - y_a_7 - y_a_17 - y_a_25 - y_a_33 - y_a_42 - y_a_49 - y_a_64 - y_a_77
       - y_a_85 - y_a_91 - y_a_93 - y_a_94 + y_a_95  = 0
 c19:  - y_a_18 - y_a_34 - y_a_50 - y_a_57 - y_a_65 - y_a_71 - y_a_78 - y_a_89
       - y_a_95  = 0
 c20:  y_a_96 + y_a_97 + y_a_98 + y_a_99 - y_a_104  = 0
 c21:  - y_a_100 - y_a_102 - y_a_101 - y_a_103 + y_a_104  = 0
 c22:  y_a_0 + 19 x_a_0 <= 19
 c23:  y_a_1 + 35 x_a_1 <= 35
 c24:  y_a_2 + 18 x_a_2 <= 18
 c25:  y_a_3 + 25 x_a_3 <= 25
 c26:  y_a_4 + 49 x_a_4 <= 49
 c27:  y_a_5 + 35 x_a_5 <= 35
 c28:  y_a_6 + 25 x_a_6 <= 25
 c29:  y_a_7 + 14 x_a_7 <= 14
 c30:  y_a_8 + 13 x_a_8 <= 13
 c31:  y_a_9 + 48 x_a_9 <= 48
 c32:  y_a_10 + 9 x_a_10 <= 9
 c33:  y_a_11 + 7 x_a_11 <= 7
 c34:  y_a_12 + 23 x_a_12 <= 23
 c35:  y_a_13 + 24 x_a_13 <= 24
 c36:  y_a_14 + 25 x_a_14 <= 25
 c37:  y_a_15 + 42 x_a_15 <= 42
 c38:  y_a_16 + 30 x_a_16 <= 30
 c39:  y_a_17 + 12 x_a_17 <= 12
 c40:  y_a_18 + 11 x_a_18 <= 11
 c41:  y_a_19 + 40 x_a_19 <= 40
 c42:  y_a_20 + 3 x_a_20 <= 3
 c43:  y_a_21 + 10 x_a_21 <= 10
 c44:  y_a_22 + 43 x_a_22 <= 43
 c45:  y_a_23 + 46 x_a_23 <= 46
 c46:  y_a_24 + 20 x_a_24 <= 20
 c47:  y_a_25 + 41 x_a_25 <= 41
 c48:  y_a_26 + 30 x_a_26 <= 30
 c49:  y_a_27 + 39 x_a_27 <= 39
 c50:  y_a_28 + 44 x_a_28 <= 44
 c51:  y_a_29 + 8 x_a_29 <= 8
 c52:  y_a_30 + 15 x_a_30 <= 15
 c53:  y_a_31 + 23 x_a_31 <= 23
 c54:  y_a_32 + 21 x_a_32 <= 21
 c55:  y_a_33 + 19 x_a_33 <= 19
 c56:  y_a_34 + 33 x_a_34 <= 33
 c57:  y_a_35 + 42 x_a_35 <= 42
 c58:  y_a_36 + 20 x_a_36 <= 20
 c59:  y_a_37 + 49 x_a_37 <= 49
 c60:  y_a_38 + 35 x_a_38 <= 35
 c61:  y_a_39 + 47 x_a_39 <= 47
 c62:  y_a_40 + 41 x_a_40 <= 41
 c63:  y_a_41 + 37 x_a_41 <= 37
 c64:  y_a_42 + 23 x_a_42 <= 23
 c65:  y_a_43 + 45 x_a_43 <= 45
 c66:  y_a_44 + 12 x_a_44 <= 12
 c67:  y_a_45 + 38 x_a_45 <= 38
 c68:  y_a_46 + 31 x_a_46 <= 31
 c69:  y_a_47 + 34 x_a_47 <= 34
 c70:  y_a_48 + 46 x_a_48 <= 46
 c71:  y_a_49 + 5 x_a_49 <= 5
 c72:  y_a_50 + 6 x_a_50 <= 6
 c73:  y_a_51 + 44 x_a_51 <= 44
 c74:  y_a_52 + 37 x_a_52 <= 37
 c75:  y_a_53 + 37 x_a_53 <= 37
 c76:  y_a_54 + 32 x_a_54 <= 32
 c77:  y_a_55 + 40 x_a_55 <= 40
 c78:  y_a_56 + 3 x_a_56 <= 3
 c79:  y_a_57 + 39 x_a_57 <= 39
 c80:  y_a_58 + 39 x_a_58 <= 39
 c81:  y_a_59 + 4 x_a_59 <= 4
 c82:  y_a_60 + 12 x_a_60 <= 12
 c83:  y_a_61 + 2 x_a_61 <= 2
 c84:  y_a_62 + 30 x_a_62 <= 30
 c85:  y_a_63 + 44 x_a_63 <= 44
 c86:  y_a_64 + 35 x_a_64 <= 35
 c87:  y_a_65 + 24 x_a_65 <= 24
 c88:  y_a_66 + 9 x_a_66 <= 9
 c89:  y_a_67 + 34 x_a_67 <= 34
 c90:  y_a_68 + 26 x_a_68 <= 26
 c91:  y_a_69 + 15 x_a_69 <= 15
 c92:  y_a_70 + 21 x_a_70 <= 21
 c93:  y_a_71 + 45 x_a_71 <= 45
 c94:  y_a_72 + 24 x_a_72 <= 24
 c95:  y_a_73 + 22 x_a_73 <= 22
 c96:  y_a_74 + 35 x_a_74 <= 35
 c97:  y_a_75 + 12 x_a_75 <= 12
 c98:  y_a_76 + 48 x_a_76 <= 48
 c99:  y_a_77 + 19 x_a_77 <= 19
 c100: y_a_78 + 20 x_a_78 <= 20
 c101: y_a_79 + 16 x_a_79 <= 16
 c102: y_a_80 + 15 x_a_80 <= 15
 c103: y_a_81 + 21 x_a_81 <= 21
 c104: y_a_82 + 6 x_a_82 <= 6
 c105: y_a_83 + 43 x_a_83 <= 43
 c106: y_a_84 + 12 x_a_84 <= 12
 c107: y_a_85 + 30 x_a_85 <= 30
 c108: y_a_86 + 40 x_a_86 <= 40
 c109: y_a_87 + 40 x_a_87 <= 40
 c110: y_a_88 + 47 x_a_88 <= 47
 c111: y_a_89 + 7 x_a_89 <= 7
 c112: y_a_90 + 44 x_a_90 <= 44
 c113: y_a_91 + 6 x_a_91 <= 6
 c114: y_a_92 + 12 x_a_92 <= 12
 c115: y_a_93 + 36 x_a_93 <= 36
 c116: y_a_94 + 5 x_a_94 <= 5
 c117: y_a_95 + 9 x_a_95 <= 9
 c118: y_a_96 + 50000000 x_a_96 <= 50000000
 c119: y_a_97 + 50000000 x_a_97 <= 50000000
 c120: y_a_98 + 50000000 x_a_98 <= 50000000
 c121: y_a_99 + 50000000 x_a_99 <= 50000000
 c122: y_a_100 + 50000000 x_a_100 <= 50000000
 c123: y_a_101 + 50000000 x_a_101 <= 50000000
 c124: y_a_102 + 50000000 x_a_102 <= 50000000
 c125: y_a_103 + 50000000 x_a_103 <= 50000000
 c126: y_a_104 + 10000 x_a_104 <= 10000
Bounds
 0 <= x_a_0 <= 1
 0 <= x_a_1 <= 1
 0 <= x_a_2 <= 1
 0 <= x_a_3 <= 1
 0 <= x_a_4 <= 1
 0 <= x_a_5 <= 1
 0 <= x_a_6 <= 1
 0 <= x_a_7 <= 1
 0 <= x_a_8 <= 1
 0 <= x_a_9 <= 1
 0 <= x_a_10 <= 1
 0 <= x_a_11 <= 1
 0 <= x_a_12 <= 1
 0 <= x_a_13 <= 1
 0 <= x_a_14 <= 1
 0 <= x_a_15 <= 1
 0 <= x_a_16 <= 1
 0 <= x_a_17 <= 1
 0 <= x_a_18 <= 1
 0 <= x_a_19 <= 1
 0 <= x_a_20 <= 1
 0 <= x_a_21 <= 1
 0 <= x_a_22 <= 1
 0 <= x_a_23 <= 1
 0 <= x_a_24 <= 1
 0 <= x_a_25 <= 1
 0 <= x_a_26 <= 1
 0 <= x_a_27 <= 1
 0 <= x_a_28 <= 1
 0 <= x_a_29 <= 1
 0 <= x_a_30 <= 1
 0 <= x_a_31 <= 1
 0 <= x_a_32 <= 1
 0 <= x_a_33 <= 1
 0 <= x_a_34 <= 1
 0 <= x_a_35 <= 1
 0 <= x_a_36 <= 1
 0 <= x_a_37 <= 1
 0 <= x_a_38 <= 1
 0 <= x_a_39 <= 1
 0 <= x_a_40 <= 1
 0 <= x_a_41 <= 1
 0 <= x_a_42 <= 1
 0 <= x_a_43 <= 1
 0 <= x_a_44 <= 1
 0 <= x_a_45 <= 1
 0 <= x_a_46 <= 1
 0 <= x_a_47 <= 1
 0 <= x_a_48 <= 1
 0 <= x_a_49 <= 1
 0 <= x_a_50 <= 1
 0 <= x_a_51 <= 1
 0 <= x_a_52 <= 1
 0 <= x_a_53 <= 1
 0 <= x_a_54 <= 1
 0 <= x_a_55 <= 1
 0 <= x_a_56 <= 1
 0 <= x_a_57 <= 1
 0 <= x_a_58 <= 1
 0 <= x_a_59 <= 1
 0 <= x_a_60 <= 1
 0 <= x_a_61 <= 1
 0 <= x_a_62 <= 1
 0 <= x_a_63 <= 1
 0 <= x_a_64 <= 1
 0 <= x_a_65 <= 1
 0 <= x_a_66 <= 1
 0 <= x_a_67 <= 1
 0 <= x_a_68 <= 1
 0 <= x_a_69 <= 1
 0 <= x_a_70 <= 1
 0 <= x_a_71 <= 1
 0 <= x_a_72 <= 1
 0 <= x_a_73 <= 1
 0 <= x_a_74 <= 1
 0 <= x_a_75 <= 1
 0 <= x_a_76 <= 1
 0 <= x_a_77 <= 1
 0 <= x_a_78 <= 1
 0 <= x_a_79 <= 1
 0 <= x_a_80 <= 1
 0 <= x_a_81 <= 1
 0 <= x_a_82 <= 1
 0 <= x_a_83 <= 1
 0 <= x_a_84 <= 1
 0 <= x_a_85 <= 1
 0 <= x_a_86 <= 1
 0 <= x_a_87 <= 1
 0 <= x_a_88 <= 1
 0 <= x_a_89 <= 1
 0 <= x_a_90 <= 1
 0 <= x_a_91 <= 1
 0 <= x_a_92 <= 1
 0 <= x_a_93 <= 1
 0 <= x_a_94 <= 1
 0 <= x_a_95 <= 1
 0 <= x_a_96 <= 1
 0 <= x_a_97 <= 1
 0 <= x_a_98 <= 1
 0 <= x_a_99 <= 1
 0 <= x_a_100 <= 1
 0 <= x_a_101 <= 1
 0 <= x_a_102 <= 1
 0 <= x_a_103 <= 1
 0 <= x_a_104 <= 1
Binaries
 x_a_0  x_a_1  x_a_2  x_a_3  x_a_4  x_a_5  x_a_6  x_a_7  x_a_8  x_a_9  x_a_10 
 x_a_11  x_a_12  x_a_13  x_a_14  x_a_15  x_a_16  x_a_17  x_a_18  x_a_19 
 x_a_20  x_a_21  x_a_22  x_a_23  x_a_24  x_a_25  x_a_26  x_a_27  x_a_28 
 x_a_29  x_a_30  x_a_31  x_a_32  x_a_33  x_a_34  x_a_35  x_a_36  x_a_37 
 x_a_38  x_a_39  x_a_40  x_a_41  x_a_42  x_a_43  x_a_44  x_a_45  x_a_46 
 x_a_47  x_a_48  x_a_49  x_a_50  x_a_51  x_a_52  x_a_53  x_a_54  x_a_55 
 x_a_56  x_a_57  x_a_58  x_a_59  x_a_60  x_a_61  x_a_62  x_a_63  x_a_64 
 x_a_65  x_a_66  x_a_67  x_a_68  x_a_69  x_a_70  x_a_71  x_a_72  x_a_73 
 x_a_74  x_a_75  x_a_76  x_a_77  x_a_78  x_a_79  x_a_80  x_a_81  x_a_82 
 x_a_83  x_a_84  x_a_85  x_a_86  x_a_87  x_a_88  x_a_89  x_a_90  x_a_91 
 x_a_92  x_a_93  x_a_94  x_a_95  x_a_96  x_a_97  x_a_98  x_a_99  x_a_100 
 x_a_101  x_a_102  x_a_103  x_a_104 
End
